ALGO = Fast
EDIFF = 0.002
ENCUT = 520.0
IBRION = 2
ISIF = 3
ISMEAR = -5
ISPIN = 2
LASPH = True
LORBIT = 11
LREAL = Auto
LWAVE = False
MAGMOM = 12*0.6
NELM = 100
NSW = 99
PREC = Normal
SIGMA = 0.05
