pymatgen with grid density = 951 / number of atoms
0
Gamma
5 3 5
